NAME : XML100_1225_15
DIMENSION : 101
NB_CLUSTERS : 3
CLUSTERING_ALG : KMedoids
CLUSTERING_PARAMS : k(2)
CLUSTERS
1 0
2 2 6 12 14 16 18 19 22 27 29 32 33 36 37 39 46 54 58 59 66 74 75 79 81 84 86 87 90 93 94 95 97 99
3 1 3 4 5 7 8 9 10 11 13 15 17 20 21 23 24 25 26 28 30 31 34 35 38 40 41 42 43 44 45 47 48 49 50 51 52 53 55 56 57 60 61 62 63 64 65 67 68 69 70 71 72 73 76 77 78 80 82 83 85 88 89 91 92 96 98 100
EOF